x = 18;
y = 20;
c = 75;
n = 37;

p = [61  77  94  36  88  22  36  25  51  67  100  36  63  91  84  52  23  34  90  22  40  64  76  63  99  65  18  54  75  81  24  90  11  39  43  27  11];
w = [3  8  8  8  2  3  10  6  7  9  7  7  1  1  1  4  10  5  6  9  10  7  10  7  7  1  4  7  1  6  4  1  9  6  10  1  10];
s = [2  7  12  13  10  4  8  7  4  18  10  4  6  1  11  8  17  9  7  3  3  11  17  11  5  13  14  17  7  14  14  8  14  18  6  18  13];
